747.80 0
0 7 14 19 54 13 57 15 5 47 48 0
0 34 46 52 8 53 11 58 26 0
0 17 12 72 31 55 25 44 3 16 63 33 0
0 75 51 40 32 50 18 24 49 0
0 6 62 73 1 43 23 56 41 42 64 22 0
0 68 2 28 61 21 74 30 4 0
0 35 59 66 65 38 10 39 9 0
0 67 27 45 29 37 20 70 60 71 69 36 0